Version identifier: 22.1.0.0 | 2022-03-09 | 1a383f8ce
CPXPARAM_Threads                                 1
CPXPARAM_MIP_Strategy_VariableSelect             3
CPXPARAM_TimeLimit                               599.999985939
1 of 1 MIP starts provided solutions.
MIP start 'm1' defined initial solution with objective 1.0000.
Tried aggregator 2 times.
MIP Presolve eliminated 40 rows and 1 columns.
MIP Presolve added 36 rows and 9 columns.
MIP Presolve modified 56 coefficients.
Aggregator did 9 substitutions.
Reduced MIP has 1813 rows, 7800 columns, and 127220 nonzeros.
Reduced MIP has 7800 binaries, 0 generals, 0 SOSs, and 0 indicators.
Presolve time = 0.17 sec. (230.52 ticks)
Probing time = 0.02 sec. (21.63 ticks)
Tried aggregator 1 time.
Detecting symmetries...
MIP Presolve modified 14 coefficients.
Reduced MIP has 1813 rows, 7800 columns, and 127516 nonzeros.
Reduced MIP has 7800 binaries, 0 generals, 0 SOSs, and 0 indicators.
Presolve time = 0.13 sec. (173.93 ticks)
Probing time = 0.03 sec. (21.67 ticks)
Clique table members: 1195.
MIP emphasis: balance optimality and feasibility.
MIP search method: dynamic search.
Parallel mode: none, using 1 thread.
Root relaxation solution time = 2.12 sec. (2539.11 ticks)

        Nodes                                         Cuts/
   Node  Left     Objective  IInf  Best Integer    Best Bound    ItCnt     Gap

*     0+    0                            1.0000    45150.0000              --- 
      0     0      300.0000  1316        1.0000      300.0000     6056     --- 
      0     0      300.0000   394        1.0000       Cuts: 7     7093     --- 
      0     0      300.0000   637        1.0000     Cuts: 102    13265     --- 
*     0+    0                          142.0000      300.0000           111.27%
      0     0      300.0000   798      142.0000      Cuts: 25    18132  111.27%
*     0+    0                          231.0000      300.0000            29.87%
      0     0        cutoff            231.0000      300.0000    18132   29.87%
Detecting symmetries...
      0     2      300.0000   276      231.0000      300.0000    18132   29.87%
Elapsed time = 62.12 sec. (68528.83 ticks, tree = 0.01 MB, solutions = 3)
      1     3      300.0000  1216      231.0000      300.0000    30121   29.87%
      2     4      300.0000   390      231.0000      300.0000    35208   29.87%
      3     5      300.0000   742      231.0000      300.0000    42478   29.87%
      4     6      300.0000   389      231.0000      300.0000    42777   29.87%
      5     7      300.0000   498      231.0000      300.0000    43867   29.87%
      6     8      300.0000   378      231.0000      300.0000    46053   29.87%
      7     9      300.0000   860      231.0000      300.0000    56015   29.87%
      8    10      300.0000   377      231.0000      300.0000    56516   29.87%
      9    11      300.0000   630      231.0000      300.0000    64870   29.87%
     10    12      300.0000   399      231.0000      300.0000    65177   29.87%
Elapsed time = 83.91 sec. (91432.34 ticks, tree = 0.12 MB, solutions = 3)
     11    13      300.0000   606      231.0000      300.0000    69776   29.87%
     14    16      300.0000   416      231.0000      300.0000    75527   29.87%
     16    18      300.0000  1134      231.0000      300.0000    85186   29.87%
     18    20      300.0000   728      231.0000      300.0000    94439   29.87%
     21    23      300.0000   381      231.0000      300.0000    99092   29.87%
     22    24      300.0000   385      231.0000      300.0000   101931   29.87%
     23    25      300.0000   840      231.0000      300.0000   113340   29.87%
     25    27      300.0000   598      231.0000      300.0000   122402   29.87%
     27    29      300.0000   386      231.0000      300.0000   123070   29.87%
     28    30      300.0000   689      231.0000      300.0000   128105   29.87%
Elapsed time = 111.51 sec. (120245.45 ticks, tree = 0.38 MB, solutions = 3)
     30    32      300.0000   644      231.0000      300.0000   133247   29.87%
     31    33      300.0000   646      231.0000      300.0000   135573   29.87%
     33    35      300.0000   734      231.0000      300.0000   143212   29.87%
     35    37      300.0000   802      231.0000      300.0000   155449   29.87%
     36    38      300.0000   650      231.0000      300.0000   160817   29.87%
     37    39      300.0000   596      231.0000      300.0000   166273   29.87%
     38    40      300.0000   824      231.0000      300.0000   171925   29.87%
     40    42      300.0000   698      231.0000      300.0000   179012   29.87%
     41    43      300.0000   631      231.0000      300.0000   184020   29.87%
     42    44      300.0000   757      231.0000      300.0000   192098   29.87%
Elapsed time = 139.16 sec. (148445.91 ticks, tree = 0.55 MB, solutions = 3)
     44    46      300.0000   548      231.0000      300.0000   199621   29.87%
     45    47      300.0000   637      231.0000      300.0000   210933   29.87%
     46    48      300.0000   554      231.0000      300.0000   215497   29.87%
     47    49      300.0000   717      231.0000      300.0000   224541   29.87%
     49    51      300.0000   538      231.0000      300.0000   226976   29.87%
     50    52      300.0000   452      231.0000      300.0000   230297   29.87%
     51    53      300.0000   688      231.0000      300.0000   238356   29.87%
     54    56      300.0000   441      231.0000      300.0000   240339   29.87%
     56    58      300.0000   612      231.0000      300.0000   248780   29.87%
     59    61      300.0000   349      231.0000      300.0000   253975   29.87%
Elapsed time = 161.05 sec. (170363.65 ticks, tree = 0.79 MB, solutions = 3)
     60    62      300.0000   355      231.0000      300.0000   257752   29.87%
     62    64      300.0000   341      231.0000      300.0000   262115   29.87%
     64    66      300.0000   450      231.0000      300.0000   267163   29.87%
     67    68      298.9119   825      231.0000      300.0000   292629   29.87%
     68    69      300.0000   409      231.0000      300.0000   300482   29.87%
     69    70      300.0000   479      231.0000      300.0000   310492   29.87%
     71    72      300.0000   395      231.0000      300.0000   314131   29.87%
     72    73      300.0000   543      231.0000      300.0000   320152   29.87%
     74    75      300.0000   594      231.0000      300.0000   321633   29.87%
     76    77      300.0000   580      231.0000      300.0000   323288   29.87%
Elapsed time = 185.46 sec. (195274.45 ticks, tree = 0.99 MB, solutions = 3)
     78    79      300.0000   551      231.0000      300.0000   325669   29.87%
     80    80      300.0000   390      231.0000      300.0000   328515   29.87%
     83    83      300.0000   443      231.0000      300.0000   331061   29.87%
     85    85      300.0000   483      231.0000      300.0000   333242   29.87%
     86    86      299.5588   632      231.0000      300.0000   335522   29.87%
     88    88      299.8529   604      231.0000      300.0000   337219   29.87%
     90    90      300.0000   397      231.0000      300.0000   339092   29.87%
     92    92      299.2857   484      231.0000      300.0000   340892   29.87%
     95    95      300.0000   431      231.0000      300.0000   343615   29.87%
     98    98      300.0000   452      231.0000      300.0000   345636   29.87%
Elapsed time = 197.38 sec. (208130.79 ticks, tree = 1.05 MB, solutions = 3)
    100   100      300.0000   429      231.0000      300.0000   347162   29.87%
    103   103      300.0000   416      231.0000      300.0000   349494   29.87%
    105   105      300.0000   416      231.0000      300.0000   351175   29.87%
    107   107      300.0000   366      231.0000      300.0000   353111   29.87%
    110   110      299.4048   418      231.0000      300.0000   355766   29.87%
    112   112      299.4404   474      231.0000      300.0000   358369   29.87%
    115   115      299.4643   476      231.0000      300.0000   360830   29.87%
    118   118      300.0000   366      231.0000      300.0000   362474   29.87%
    120   120      300.0000   380      231.0000      300.0000   364098   29.87%
    123   123      299.5455   358      231.0000      300.0000   366117   29.87%
Elapsed time = 209.90 sec. (221064.20 ticks, tree = 1.13 MB, solutions = 3)
    126   126      300.0000   391      231.0000      300.0000   367446   29.87%
    128   128      299.2391   425      231.0000      300.0000   369604   29.87%
    131   131      299.7403   415      231.0000      300.0000   372583   29.87%
    134   134      299.4521   499      231.0000      300.0000   374908   29.87%
    137   137      299.8387   470      231.0000      300.0000   377270   29.87%
    140   139      299.6711   453      231.0000      300.0000   379464   29.87%
    145   144      299.6667   410      231.0000      300.0000   380942   29.87%
    148   147      299.6667   431      231.0000      300.0000   382145   29.87%
    151   150      299.6341   459      231.0000      300.0000   383240   29.87%
    155   154      298.7500   449      231.0000      300.0000   384509   29.87%
Elapsed time = 220.98 sec. (232675.46 ticks, tree = 1.24 MB, solutions = 3)
    159   158      299.5455   473      231.0000      300.0000   385527   29.87%
    163   162      299.5455   441      231.0000      300.0000   386494   29.87%
    167   164      299.5455   466      231.0000      300.0000   387808   29.87%
    171   167      299.5455   459      231.0000      300.0000   388879   29.87%
    175   171      299.5455   404      231.0000      300.0000   390100   29.87%
    179   175      299.2647   436      231.0000      300.0000   392011   29.87%
    182   177      299.4545   393      231.0000      300.0000   393296   29.87%
    186   180      298.7857   357      231.0000      300.0000   395221   29.87%
    190   183      299.4286   407      231.0000      300.0000   396445   29.87%
    194   185      299.4286   420      231.0000      300.0000   397737   29.87%
Elapsed time = 231.86 sec. (243376.73 ticks, tree = 1.33 MB, solutions = 3)
    198   189      298.0000   322      231.0000      300.0000   399421   29.87%
    200   191      299.4286   438      231.0000      300.0000   399700   29.87%
    204   194      298.5000   379      231.0000      300.0000   401315   29.87%
    208   198      299.4286   433      231.0000      300.0000   402687   29.87%
    211   200      298.8000   406      231.0000      300.0000   404904   29.87%
    216   204      299.4286   453      231.0000      300.0000   405752   29.87%
    220   208      298.8000   458      231.0000      300.0000   407558   29.87%
    224   212      298.8000   356      231.0000      300.0000   409094   29.87%
    228   215      299.0000   233      231.0000      300.0000   411377   29.87%
    245   230      297.0000   250      231.0000      300.0000   416418   29.87%
Elapsed time = 245.99 sec. (256928.03 ticks, tree = 1.48 MB, solutions = 3)
    255   232      300.0000   336      231.0000      300.0000   420842   29.87%
    260   237      300.0000   509      231.0000      300.0000   430358   29.87%
    266   243      300.0000   608      231.0000      300.0000   439422   29.87%
    271   248      300.0000   466      231.0000      300.0000   446327   29.87%
    276   253      300.0000   497      231.0000      300.0000   453853   29.87%
    280   257      299.7619   654      231.0000      300.0000   460060   29.87%
    287   264      299.1935   422      231.0000      300.0000   467854   29.87%
    295   272      300.0000   394      231.0000      300.0000   475987   29.87%
    300   277      300.0000   349      231.0000      300.0000   481657   29.87%
    308   284      299.5455   418      231.0000      300.0000   490044   29.87%
Elapsed time = 287.64 sec. (301893.89 ticks, tree = 1.65 MB, solutions = 3)
    319   290      298.0000   386      231.0000      300.0000   496881   29.87%
    327   297      297.0000   456      231.0000      300.0000   501364   29.87%
    337   305      298.0000   413      231.0000      300.0000   506749   29.87%
    349   316      297.0000   307      231.0000      300.0000   514395   29.87%
    369   327      296.0000   296      231.0000      300.0000   518892   29.87%
    393   329      296.0000   265      231.0000      300.0000   522161   29.87%
    414   337      296.0000   278      231.0000      300.0000   525640   29.87%
    436   341      300.0000   307      231.0000      300.0000   532526   29.87%
    449   354      298.6667   626      231.0000      300.0000   538550   29.87%
    463   362    infeasible            231.0000      300.0000   543774   29.87%
Elapsed time = 330.01 sec. (342540.67 ticks, tree = 1.91 MB, solutions = 3)
    478   370      296.0000   346      231.0000      300.0000   547643   29.87%
    494   376      296.0000   346      231.0000      300.0000   551416   29.87%
    506   383      300.0000   320      231.0000      300.0000   563573   29.87%
    517   393      298.6000   382      231.0000      300.0000   570468   29.87%
    530   405      297.4762   497      231.0000      300.0000   575600   29.87%
    547   420      297.4667   441      231.0000      300.0000   577210   29.87%
    560   433      297.4667   444      231.0000      300.0000   577966   29.87%
    577   450      297.4667   441      231.0000      300.0000   579943   29.87%
    594   465      297.3333   408      231.0000      300.0000   582537   29.87%
    614   480      297.0000   453      231.0000      300.0000   583017   29.87%
Elapsed time = 372.78 sec. (384096.37 ticks, tree = 2.29 MB, solutions = 3)
    637   487    infeasible            231.0000      300.0000   587476   29.87%
    651   488      299.1964   425      231.0000      300.0000   594395   29.87%
    663   500      298.1250   477      231.0000      300.0000   599245   29.87%
    678   515      299.1935   449      231.0000      300.0000   603701   29.87%
    689   526      298.1250   333      231.0000      300.0000   610860   29.87%
    701   537      298.3102   457      231.0000      300.0000   617671   29.87%
    712   548      298.5000   397      231.0000      300.0000   623298   29.87%
    721   557      298.7500   473      231.0000      300.0000   628991   29.87%
    732   568      299.1837   438      231.0000      300.0000   635261   29.87%
    742   578      299.1837   469      231.0000      300.0000   641320   29.87%
Elapsed time = 413.20 sec. (424947.20 ticks, tree = 2.62 MB, solutions = 3)
    753   589      299.0000   509      231.0000      300.0000   647381   29.87%
    764   600      299.1818   410      231.0000      300.0000   654159   29.87%
    778   612      299.1818   425      231.0000      300.0000   659824   29.87%
    790   622      298.3333   428      231.0000      300.0000   666039   29.87%
    802   633      299.1818   431      231.0000      300.0000   670630   29.87%
    814   642      298.4091   416      231.0000      300.0000   676582   29.87%
    828   651      298.3333   440      231.0000      300.0000   682699   29.87%
    843   664      297.5000   368      231.0000      300.0000   687034   29.87%
    857   678      298.1250   444      231.0000      300.0000   692993   29.87%
    870   684      298.6596   387      231.0000      300.0000   702210   29.87%
Elapsed time = 453.55 sec. (465564.19 ticks, tree = 2.97 MB, solutions = 3)
    881   694      297.7778   342      231.0000      300.0000   708478   29.87%
    894   706      297.5000   341      231.0000      300.0000   714296   29.87%
    907   719      297.2500   423      231.0000      300.0000   720176   29.87%
    922   733      297.2000   419      231.0000      300.0000   722828   29.87%
    937   746      297.0000   304      231.0000      300.0000   728256   29.87%
    952   758      296.3542   367      231.0000      300.0000   734280   29.87%
    978   777      296.3496   394      231.0000      300.0000   734976   29.87%
*  1000+  792                          259.0000      300.0000            15.83%
*  1000+  792                          264.0000      300.0000            13.64%
   1000   793      296.3485   392      264.0000      300.0000   735532   13.64%
   1023   809      296.3333   301      264.0000      300.0000   737269   13.64%
   1042   822      296.3333   272      264.0000      300.0000   741978   13.64%
Elapsed time = 495.80 sec. (506480.64 ticks, tree = 3.41 MB, solutions = 5)
   1057   827      295.9286   204      264.0000      300.0000   747547   13.64%
   1064   832      299.2544   394      264.0000      300.0000   755165   13.64%
   1080   848      299.2544   424      264.0000      300.0000   757965   13.64%
   1096   864      299.2333   437      264.0000      300.0000   760869   13.64%
*  1111+  876                          273.0000      300.0000             9.89%
   1111   878      300.0000   335      273.0000      300.0000   768154    9.89%
*  1112+  877                          276.0000      300.0000             8.70%
   1112   879      299.6875   447      276.0000      300.0000   769260    8.70%
*  1114+  879                          278.0000      300.0000             7.91%
*  1114+  879                          285.0000      300.0000             5.26%
   1114   881      299.7170   477      285.0000      300.0000   771177    5.26%
   1126   892      299.4954   565      285.0000      300.0000   775913    5.26%
   1140   904      299.4737   550      285.0000      300.0000   778682    5.26%
   1154   918      299.4737   428      285.0000      300.0000   781425    5.26%
Elapsed time = 558.85 sec. (564559.07 ticks, tree = 3.72 MB, solutions = 9)
   1168   931      298.4091   445      285.0000      300.0000   786495    5.26%
   1183   944      297.5000   340      285.0000      300.0000   790288    5.26%
Starting limited solution polishing.
*  1200+  947                          286.0000      300.0000             4.90%
   1200   948      297.3611   276      286.0000      300.0000   793474    4.90%
   1208   949      298.6667   475      286.0000      300.0000   800794    4.90%
   1220   961      298.0000   482      286.0000      300.0000   805284    4.90%
   1235   975      297.3750   447      286.0000      300.0000   808353    4.90%
   1253   989      297.3750   442      286.0000      300.0000   811225    4.90%
   1276   997      296.0000   312      286.0000      300.0000   818336    4.90%
   1290   998      298.0000   311      286.0000      300.0000   823536    4.90%

Clique cuts applied:  30
Cover cuts applied:  1
Zero-half cuts applied:  25
Gomory fractional cuts applied:  3

Root node processing (before b&c):
  Real time             =   61.98 sec. (68422.17 ticks)
Sequential b&c:
  Real time             =  538.02 sec. (535836.58 ticks)
                          ------------
Total (root+branch&cut) =  600.01 sec. (604258.74 ticks)
Primal:	286
Dual:	300
Status:	Feasible
Time:	600
Sequence:
	19
	10
	14
	5
	18
	3
	20
	5
	16
	5
	20
	0
	20
	8
	12
	5
	20
	0
	20
	8
	12
	5
	14
	9
	12
	5
	20
	1
	18
	8
	12
	7
	17
	5
	12
	8
	20
	0
	18
	5
	14
	8
	15
	5
	18
	2
	20
	7
	16
	5
	18
	4
	20
	5
	12
	9
	14
	5
	8
	14
	5
	12
	6
	10
	12
	5
	12
	7
	10
	12
	5
	12
	11
	5
	14
	8
	5
	13
	10
	5
	14
	8
	6
	12
	5
	10
	12
	7
	18
	2
	20
	5
	16
	6
	20
	2
	20
	5
	13
	5
	18
	2
	20
	6
	17
	5
	18
	4
	19
	5
	16
	5
	20
	2
	18
	6
	17
	5
	18
	4
	18
	6
	14
	8
	18
	1
	18
	10
	13
	5
	18
	4
	18
	7
	12
	8
	18
	1
	21
	8
	12
	5
	20
	3
	18
	5
	14
	8
	20
	0
	18
	10
	12
	5
	23
	0
	18
	5
	14
	8
	19
	1
	18
	10
	12
	6
	17
	5
	18
	4
	19
	5
	12
	10
	18
	0
	20
	8
	12
	5
	23
	0
	18
	10
	12
	5
	8
	15
	5
	18
	2
	18
	7
	17
	5
	5
	12
	9
	5
	12
	8
	12
	5
	17
	7
	12
	8
	5
	14
	9
	14
	5
	16
	5
	18
	0
	20
	5
	17
	5
	12
	10
	12
	5
	12
	11
	14
	5
	5
	12
	9
	18
	1
	18
	8
	15
	5
	5
	17
	5
	14
	8
	13
	5
	5
	17
	5
	14
	9
	12
	5
	23
	1
	19
	8
	12
	5
	20
	3
	20
	5
	16
	5
	19
	4
	20
	5
	12
	9
	18
	1
	18
	10
	13
	5
	18
	2
	20
	7
	16
	5
	18
	4
	18
	7
	16
